units		metal
atom_style	atomic
boundary    p p p

lattice		sc 1.0
region		box block 0 1 0 1 0 1
create_box	2 box

read_dump ${StartFile}  0 x y z box yes add yes

change_box all x scale ${cell_scale} y scale ${cell_scale} z scale ${cell_scale}

neighbor	4.0 bin
neigh_modify	every 50 delay 0 check no
timestep	0.001
group metal type 1
group nitro type 2
mass 1 238.02
mass 2 14.0067

pair_style snap
pair_coeff * * SNAPotential.snapcoeff SNAPotential.snapparam U N

thermo 1
fix mom all momentum 10 linear 1 1 1
dump myDump all custom 1 ${label}_relax.dump  id type xu yu zu
minimize 1.0e-11 1.0e-11 100 1000

run		0

variable form_energy equal pe
print "${form_energy}" file defect_info.temp

